NAME: random-63-25982
TYPE: TSP
COMMENT: size=63 seed=25982
DIMENSION: 128
EDGE_WEIGHT_TYPE: EUC_2D
NODE_COORD_SECTION
+0 474 719
-0 474 719
+1 486 968
-1 574 410
+2 483 843
-2 372 765
+3 414 238
-3 551 932
+4 375 478
-4 113 792
+5 537 537
-5 844 596
+6 625 776
-6 535 466
+7 536 924
-7 57 591
+8 891 443
-8 192 990
+9 639 827
-9 975 898
+10 148 288
-10 854 221
+11 501 54
-11 979 420
+12 513 888
-12 977 682
+13 737 134
-13 878 258
+14 688 138
-14 379 15
+15 916 136
-15 260 585
+16 384 48
-16 56 677
+17 168 554
-17 813 282
+18 817 692
-18 769 999
+19 10 605
-19 455 841
+20 254 29
-20 114 93
+21 668 158
-21 294 719
+22 233 994
-22 90 960
+23 270 379
-23 838 752
+24 330 926
-24 57 984
+25 862 275
-25 408 545
+26 63 312
-26 158 728
+27 466 431
-27 204 868
+28 967 329
-28 172 217
+29 747 849
-29 433 548
+30 812 276
-30 489 548
+31 284 602
-31 870 709
+32 992 934
-32 929 603
+33 342 470
-33 666 991
+34 842 233
-34 290 839
+35 576 561
-35 213 671
+36 356 640
-36 932 759
+37 120 168
-37 272 999
+38 12 328
-38 610 183
+39 874 80
-39 13 77
+40 753 326
-40 961 980
+41 877 39
-41 633 25
+42 213 368
-42 956 438
+43 548 258
-43 446 56
+44 722 168
-44 277 591
+45 663 197
-45 105 16
+46 197 46
-46 993 165
+47 580 638
-47 540 761
+48 217 603
-48 964 918
+49 698 769
-49 920 995
+50 661 822
-50 20 213
+51 845 831
-51 101 604
+52 469 75
-52 398 376
+53 999 100
-53 589 531
+54 268 235
-54 965 838
+55 30 296
-55 504 661
+56 402 257
-56 759 555
+57 944 277
-57 745 692
+58 904 736
-58 510 663
+59 121 294
-59 185 121
+60 519 482
-60 501 66
+61 577 699
-61 359 526
+62 11 984
-62 103 282
+63 285 695
-63 358 827
PRECEDENCE_SECTION
+0 -0
+1 -1
+2 -2
+3 -3
+4 -4
+5 -5
+6 -6
+7 -7
+8 -8
+9 -9
+10 -10
+11 -11
+12 -12
+13 -13
+14 -14
+15 -15
+16 -16
+17 -17
+18 -18
+19 -19
+20 -20
+21 -21
+22 -22
+23 -23
+24 -24
+25 -25
+26 -26
+27 -27
+28 -28
+29 -29
+30 -30
+31 -31
+32 -32
+33 -33
+34 -34
+35 -35
+36 -36
+37 -37
+38 -38
+39 -39
+40 -40
+41 -41
+42 -42
+43 -43
+44 -44
+45 -45
+46 -46
+47 -47
+48 -48
+49 -49
+50 -50
+51 -51
+52 -52
+53 -53
+54 -54
+55 -55
+56 -56
+57 -57
+58 -58
+59 -59
+60 -60
+61 -61
+62 -62
+63 -63
EOF
